
******************************************************************************
This program contains Ipopt, a library for large-scale nonlinear optimization.
 Ipopt is released as open source code under the Eclipse Public License (EPL).
         For more information visit http://projects.coin-or.org/Ipopt

This version of Ipopt was compiled from source code available at
    https://github.com/IDAES/Ipopt as part of the Institute for the Design of
    Advanced Energy Systems Process Systems Engineering Framework (IDAES PSE
    Framework) Copyright (c) 2018-2019. See https://github.com/IDAES/idaes-pse.

This version of Ipopt was compiled using HSL, a collection of Fortran codes
    for large-scale scientific computation.  All technical papers, sales and
    publicity material resulting from use of the HSL codes within IPOPT must
    contain the following acknowledgement:
        HSL, a collection of Fortran codes for large-scale scientific
        computation. See http://www.hsl.rl.ac.uk.
******************************************************************************

This is Ipopt version 3.13.2, running with linear solver ma27.

Number of nonzeros in equality constraint Jacobian...:      808
Number of nonzeros in inequality constraint Jacobian.:        0
Number of nonzeros in Lagrangian Hessian.............:      702

Total number of variables............................:      351
                     variables with only lower bounds:      108
                variables with lower and upper bounds:      189
                     variables with only upper bounds:        0
Total number of equality constraints.................:      350
Total number of inequality constraints...............:        0
        inequality constraints with only lower bounds:        0
   inequality constraints with lower and upper bounds:        0
        inequality constraints with only upper bounds:        0

iter    objective    inf_pr   inf_du lg(mu)  ||d||  lg(rg) alpha_du alpha_pr  ls
   0  0.0000000e+00 4.51e-01 6.66e-16  -1.0 0.00e+00    -  0.00e+00 0.00e+00   0
   1  3.4312130e+00 1.88e+00 4.83e+04  -1.0 2.60e+05    -  4.36e-01 4.36e-01h  1
   2  3.9644294e+00 1.76e+00 4.57e+04  -1.0 1.70e+05    -  7.87e-01 5.15e-02h  1
   3  4.5132125e+00 1.67e+00 4.34e+04  -1.0 2.21e+05    -  7.90e-01 4.99e-02h  1
   4  2.6806963e+01 1.85e-01 1.12e+04  -1.0 2.13e+05    -  8.03e-01 9.90e-01h  1
   5  3.1280606e+01 4.05e-02 1.74e+03  -1.0 2.76e+04    -  9.70e-01 9.90e-01h  1
   6  3.1382312e+01 2.37e-03 1.50e+04  -1.0 6.08e+02    -  9.14e-01 9.90e-01h  1
   7  3.1393585e+01 4.68e-05 6.56e+01  -1.0 1.34e+02    -  9.90e-01 9.90e-01h  1
   8  3.1382147e+01 1.14e-05 4.37e+05  -3.8 1.73e+02    -  1.00e+00 8.52e-01h  1
   9  3.1382181e+01 8.57e-06 1.54e+07  -3.8 1.74e+00    -  1.00e+00 2.50e-01h  3
iter    objective    inf_pr   inf_du lg(mu)  ||d||  lg(rg) alpha_du alpha_pr  ls
  10  3.1382283e+01 3.10e-09 6.33e+03  -3.8 1.30e+00    -  1.00e+00 1.00e+00h  1
  11  3.1382283e+01 6.79e-13 2.67e+07  -3.8 1.68e-04    -  1.00e+00 1.00e+00h  1
In iteration 11, 27 Slacks too small, adjusting variable bounds
  12  3.1382283e+01 2.43e-12 1.78e+11  -3.8 2.50e-07    -  1.00e+00 1.00e+00h  1
  13  3.1382283e+01 7.16e-13 4.30e-02  -3.8 2.69e-07    -  1.00e+00 1.00e+00H  1
  14  3.1382283e+01 7.16e-13 1.78e+11  -9.0 1.93e+00    -  1.00e+00 1.16e-10h 34
  15  3.1382283e+01 7.16e-13 1.78e+11  -9.0 1.93e+00    -  1.00e+00 2.33e-10h 33
  16  3.1382283e+01 7.16e-13 1.78e+11  -9.0 1.93e+00    -  1.00e+00 2.91e-11h 36
  17  3.1382283e+01 7.16e-13 1.78e+11  -9.0 1.93e+00    -  1.00e+00 2.33e-10h 33
  18  3.1382283e+01 7.16e-13 1.78e+11  -9.0 1.93e+00    -  1.00e+00 5.82e-11h 35
  19  3.1382132e+01 1.80e-09 3.01e-05  -9.0 1.93e+00    -  1.00e+00 1.00e+00f  1
iter    objective    inf_pr   inf_du lg(mu)  ||d||  lg(rg) alpha_du alpha_pr  ls
  20  3.1382132e+01 2.42e-12 2.33e-10  -9.0 2.82e-05    -  1.00e+00 1.00e+00h  1

Number of Iterations....: 20

                                   (scaled)                 (unscaled)
Objective...............:   3.1382132204087604e+01    3.1382132204087604e+01
Dual infeasibility......:   2.3283064365386963e-10    2.3283064365386963e-10
Constraint violation....:   2.4247270857813419e-12    2.4247270857813419e-12
Complementarity.........:   9.0909100589978674e-10    9.0909100589978674e-10
Overall NLP error.......:   2.4247270857813419e-12    9.0909100589978674e-10


Number of objective function evaluations             = 206
Number of objective gradient evaluations             = 21
Number of equality constraint evaluations            = 206
Number of inequality constraint evaluations          = 0
Number of equality constraint Jacobian evaluations   = 21
Number of inequality constraint Jacobian evaluations = 0
Number of Lagrangian Hessian evaluations             = 20
Total CPU secs in IPOPT (w/o function evaluations)   =      0.040
Total CPU secs in NLP function evaluations           =      1.135

EXIT: Optimal Solution Found.
